c This is a random SAT instance with 10 variables and 20 clauses
p cnf 10 20
-5 1 2 -4 -9 6 -7 0
-5 3 -10 0
10 -10 4 -6 -8 -3 -4 5 9 8 0
6 -1 -8 -9 -5 4 3 8 7 -6 0
-1 6 -9 3 0
-9 -6 0
-5 9 3 0
-6 -7 -1 10 -10 -9 -8 2 0
4 8 1 -7 -10 -1 2 5 6 0
3 4 -9 9 8 -4 -2 1 0
-5 0
-4 7 5 9 0
-3 -4 9 8 7 0
-7 0
-6 2 -10 3 -1 -2 -5 0
-4 -8 0
-10 -1 9 0
-1 -9 -3 6 0
-2 2 -1 -7 8 6 -5 -8 9 0
4 -10 -2 -8 -9 8 5 -3 0